p cnf 91 377
11 26 -27 -28 -31 57 0
12 -31 58 -73 78 -79 0
19 23 -50 -51 68 -91 0
21 22 69 70 -77 88 0
52 62 -63 78 82 84 0
1 42 -60 83 -87 0
10 21 22 69 -72 0
11 26 -27 -28 -31 0
12 30 -31 58 -73 0
-16 -23 -68 -85 -89 0
20 22 41 71 -72 0
-50 68 -85 90 -91 0
22 41 53 -54 71 0
-31 58 -73 -78 -79 0
1 21 70 88 0
1 -42 45 83 0
1 60 70 83 0
2 3 59 61 0
2 -32 59 61 0
-2 -5 -6 35 0
-2 -6 35 -65 0
3 4 23 -68 0
3 28 32 -56 0
-3 -23 51 67 0
-3 -23 67 -89 0
4 -78 82 -84 0
-5 -6 -35 52 0
7 8 9 -47 0
7 8 9 -48 0
7 8 -47 64 0
-7 -8 -42 -60 0
9 40 -43 45 0
10 -21 -69 -77 0
11 -31 -33 34 0
12 13 -31 79 0
-18 -19 -41 -48 0
19 23 38 39 0
-19 -51 67 -68 0
-19 67 -86 91 0
23 25 27 32 0
-23 -40 -43 -87 0
-35 59 -61 -74 0
-38 53 -54 72 0
52 62 -63 -84 0
66 67 -86 -90 0
-66 -67 86 -90 0
-66 68 89 90 0
67 68 -89 91 0
-4 52 -61 78 0
-4 52 -78 84 0
-6 -35 36 -61 0
7 46 47 64 0
-8 9 46 -48 0
-8 42 70 83 0
12 -31 57 -76 0
12 -31 57 79 0
-16 -23 -89 91 0
-18 -19 -47 81 0
19 23 -65 75 0
-20 -21 69 70 0
21 38 70 -88 0
-21 -69 70 -88 0
-29 -73 78 80 0
-40 -43 45 87 0
1 2 6 0
1 2 -32 0
1 10 21 0
1 24 -32 0
-1 -5 61 0
-1 8 -10 0
-1 8 -88 0
2 5 -35 0
3 4 16 0
3 4 61 0
3 -49 89 0
3 -49 -91 0
3 -50 66 0
3 -50 -85 0
-3 16 50 0
-3 -19 84 0
4 19 51 0
4 -51 68 0
4 61 82 0
5 -35 -82 0
-5 35 62 0
6 35 -36 0
6 41 70 0
-6 37 62 0
-6 -65 82 0
7 17 55 0
7 42 46 0
8 -46 64 0
-8 -83 87 0
9 40 46 0
-9 -40 43 0
10 12 -28 0
10 12 -34 0
10 -28 -57 0
11 -19 27 0
11 -73 -80 0
-11 -14 76 0
-11 -58 80 0
12 13 -79 0
12 26 34 0
13 51 91 0
13 67 85 0
13 -78 79 0
-13 -49 90 0
-13 -68 81 0
-13 85 86 0
-14 -15 29 0
-14 58 -76 0
15 -29 30 0
-15 58 80 0
-15 -58 76 0
16 49 -51 0
-16 -50 91 0
17 44 77 0
-17 -18 -77 0
-17 22 -41 0
-17 -23 -53 0
18 38 54 0
18 41 48 0
-18 -38 -39 0
19 -74 -76 0
-19 -24 26 0
-19 25 30 0
-19 25 65 0
-19 -40 -76 0
-19 -49 -51 0
-19 -81 85 0
20 21 -72 0
20 22 -69 0
-22 -41 -53 0
-22 42 -55 0
-22 70 -71 0
23 -33 -36 0
23 -50 85 0
-23 -24 -26 0
-23 -27 -56 0
-23 30 36 0
-23 -40 65 0
-23 -51 -81 0
-23 -79 84 0
24 -35 -59 0
-24 -25 -33 0
25 -32 59 0
25 33 59 0
25 75 76 0
-25 -65 -76 0
-26 -32 59 0
27 -34 -57 0
-27 -33 57 0
29 33 57 0
-35 65 82 0
36 -37 63 0
36 -56 82 0
-36 37 63 0
-36 -37 -63 0
38 46 -54 0
38 54 -81 0
38 64 -70 0
40 43 -87 0
40 46 47 0
40 -50 51 0
-42 60 -83 0
45 46 -60 0
-45 48 55 0
-45 -48 64 0
46 48 -55 0
-46 47 -55 0
-46 47 -64 0
-47 54 72 0
50 66 89 0
50 -66 -89 0
-54 -70 72 0
-56 59 -61 0
-74 -75 76 0
12 26 -31 34 0
-21 69 -77 88 0
1 2 0
1 21 0
1 24 0
1 27 0
1 -32 0
1 -36 0
1 -62 0
1 69 0
1 -74 0
1 -83 0
1 88 0
-1 -15 0
-1 -32 0
-1 56 0
-1 -56 0
-1 -59 0
-1 -83 0
-1 -90 0
2 3 0
2 -21 0
2 -32 0
2 -35 0
2 56 0
-2 -5 0
-2 -36 0
-2 -65 0
-2 74 0
3 4 0
3 16 0
3 24 0
3 59 0
3 61 0
3 -62 0
3 -85 0
3 88 0
3 89 0
3 -91 0
-3 66 0
-3 86 0
-3 -89 0
4 33 0
4 44 0
4 -51 0
4 -52 0
4 -61 0
4 63 0
4 -67 0
4 78 0
4 -82 0
-4 84 0
-4 -84 0
5 33 0
5 -52 0
5 63 0
5 78 0
5 -78 0
5 -84 0
-5 -30 0
-5 62 0
-5 63 0
-5 78 0
-5 84 0
6 -37 0
6 -82 0
-6 59 0
-6 62 0
7 45 0
7 47 0
7 60 0
7 -89 0
-7 -45 0
-7 -46 0
-7 87 0
8 -13 0
8 -46 0
8 48 0
8 66 0
-8 -9 0
-8 21 0
-8 -23 0
-8 71 0
-8 88 0
9 -47 0
9 55 0
-9 -46 0
10 -33 0
10 -60 0
10 -70 0
10 -77 0
10 83 0
10 -88 0
-10 -11 0
-10 -12 0
-10 -13 0
-10 26 0
-10 -34 0
-10 -60 0
-10 -83 0
11 13 0
11 14 0
11 -14 0
11 15 0
11 -23 0
11 34 0
11 57 0
11 -73 0
-11 31 0
-11 -57 0
-11 -80 0
12 -28 0
12 -84 0
-12 31 0
-12 -57 0
-12 -58 0
-12 -70 0
-12 73 0
-12 -78 0
13 -31 0
13 67 0
13 78 0
13 -79 0
13 -90 0
13 91 0
-13 68 0
-13 -70 0
-13 -85 0
-13 90 0
14 -57 0
14 -58 0
14 79 0
14 -79 0
-14 78 0
-14 79 0
15 31 0
15 -57 0
15 80 0
-15 -31 0
-15 57 0
-15 58 0
16 51 0
17 18 0
17 19 0
17 22 0
17 40 0
17 70 0
17 -72 0
17 82 0
-17 -21 0
-17 -44 0
18 21 0
18 39 0
18 64 0
18 69 0
-18 -55 0
-18 -60 0
-18 -64 0
-18 -69 0
19 -30 0
19 -36 0
19 42 0
19 47 0
19 48 0
19 54 0
19 56 0
19 59 0
19 64 0
19 69 0
19 -80 0
19 85 0
-19 -27 0
-19 36 0
-19 -38 0
-19 -44 0
-19 -54 0
-19 -60 0
-19 -69 0
-19 76 0
-19 79 0
-19 -79 0
-19 -84 0
-19 -85 0
-19 86 0
-19 -87 0
-19 89 0
20 21 0
20 71 0
-20 44 0
-20 77 0
21 -77 0
21 -88 0
-21 42 0
-21 -62 0
-21 -72 0
22 -77 0
-22 -48 0
-22 71 0
-22 -71 0
